language ESSENCE' 1.0
letting lastdx=101
letting cage be [
[40,6,13,7,13,7,14,7,15,8,15],
[36,11,1,12,1,13,1,14,1,14,2],
[50,1,15,2,15,2,14,2,13,3,13],
[8,16,14,16,15,0,0, 0,0, 0,0],
[45,11,3,11,2,12,2,12,3,0,0],
[19,12,15,12,14,0,0, 0,0, 0,0],
[11,5,14,0,0, 0,0, 0,0, 0,0],
[2,8,11,0,0, 0,0, 0,0, 0,0],
[3,10,1,0,0, 0,0, 0,0, 0,0],
[31,14,12,14,11,14,10,0,0, 0,0],
[14,16,9,0,0, 0,0, 0,0, 0,0],
[34,14,15,14,16,15,16,16,16,0,0],
[10,5,9,0,0, 0,0, 0,0, 0,0],
[8,6,2,0,0, 0,0, 0,0, 0,0],
[4,14,3,0,0, 0,0, 0,0, 0,0],
[28,9,4,10,4,0,0, 0,0, 0,0],
[7,15,9,0,0, 0,0, 0,0, 0,0],
[30,7,8,6,8,5,8,4,8,3,8],
[8,13,9,0,0, 0,0, 0,0, 0,0],
[14,12,10,0,0, 0,0, 0,0, 0,0],
[50,7,6,7,5,8,5,8,6,0,0],
[21,5,5,5,6,5,7,0,0, 0,0],
[21,2,16,1,16,0,0, 0,0, 0,0],
[12,13,14,0,0, 0,0, 0,0, 0,0],
[41,7,1,7,2,7,3,7,4,6,4],
[10,10,15,10,14,0,0, 0,0, 0,0],
[32,8,10,7,10,7,9,0,0, 0,0],
[35,8,1,8,2,9,2,9,1,0,0],
[15,6,6,6,5,0,0, 0,0, 0,0],
[9,11,16,0,0, 0,0, 0,0, 0,0],
[27,9,12,9,13,10,13,10,12,0,0],
[5,13,2,0,0, 0,0, 0,0, 0,0],
[9,14,9,0,0, 0,0, 0,0, 0,0],
[45,12,6,12,7,13,7,14,7,15,7],
[15,11,6,11,5,0,0, 0,0, 0,0],
[27,5,10,4,10,4,11,0,0, 0,0],
[16,6,12,0,0, 0,0, 0,0, 0,0],
[13,5,15,0,0, 0,0, 0,0, 0,0],
[10,9,7,10,7,0,0, 0,0, 0,0],
[6,10,6,0,0, 0,0, 0,0, 0,0],
[48,10,10,10,9,10,8,11,8,11,7],
[18,3,10,3,11,0,0, 0,0, 0,0],
[33,8,8,9,8,9,9,8,9,0,0],
[17,9,16,10,16,0,0, 0,0, 0,0],
[30,15,11,15,12,16,12,16,13,0,0],
[10,4,15,0,0, 0,0, 0,0, 0,0],
[43,4,5,4,6,4,7,3,7,0,0],
[9,15,15,0,0, 0,0, 0,0, 0,0],
[7,5,2,0,0, 0,0, 0,0, 0,0],
[26,1,4,1,3,1,2,0,0, 0,0],
[4,8,12,0,0, 0,0, 0,0, 0,0],
[4,10,5,0,0, 0,0, 0,0, 0,0],
[27,6,1,5,1,4,1,4,2,0,0],
[6,6,14,0,0, 0,0, 0,0, 0,0],
[11,15,4,15,5,15,6,0,0, 0,0],
[10,12,16,0,0, 0,0, 0,0, 0,0],
[57,10,2,10,3,9,3,8,3,8,4],
[22,2,10,1,10,1,11,0,0, 0,0],
[11,12,8,0,0, 0,0, 0,0, 0,0],
[51,2,12,2,11,3,12,4,12,5,12],
[29,13,15,13,16,0,0, 0,0, 0,0],
[26,9,5,9,6,0,0, 0,0, 0,0],
[13,1,7,0,0, 0,0, 0,0, 0,0],
[18,9,14,9,15,0,0, 0,0, 0,0],
[16,4,4,0,0, 0,0, 0,0, 0,0],
[14,4,14,0,0, 0,0, 0,0, 0,0],
[13,11,11,0,0, 0,0, 0,0, 0,0],
[16,12,11,0,0, 0,0, 0,0, 0,0],
[1,14,13,0,0, 0,0, 0,0, 0,0],
[31,3,6,2,6,1,6,1,5,0,0],
[18,5,4,5,3,6,3,4,3,0,0],
[37,16,8,15,8,14,8,13,8,0,0],
[19,11,4,12,4,13,4,13,3,0,0],
[22,2,1,1,1,0,0, 0,0, 0,0],
[45,16,6,16,7,16,5,16,4,16,3],
[18,1,8,2,8,2,7,0,0, 0,0],
[16,1,9,0,0, 0,0, 0,0, 0,0],
[25,1,12,1,13,1,14,0,0, 0,0],
[22,2,2,2,3,3,3,3,4,0,0],
[4,2,9,0,0, 0,0, 0,0, 0,0],
[24,3,1,3,2,0,0, 0,0, 0,0],
[8,3,9,4,9,0,0, 0,0, 0,0],
[11,3,14,3,15,3,16,0,0, 0,0],
[19,4,13,5,13,0,0, 0,0, 0,0],
[12,4,16,0,0, 0,0, 0,0, 0,0],
[22,5,11,6,11,7,11,7,12,0,0],
[14,5,16,6,16,6,15,0,0, 0,0],
[22,6,7,7,7,8,7,0,0, 0,0],
[27,6,9,6,10,0,0, 0,0, 0,0],
[13,7,16,8,16,0,0, 0,0, 0,0],
[23,8,13,8,14,0,0, 0,0, 0,0],
[24,9,10,9,11,10,11,0,0, 0,0],
[16,11,9,11,10,12,9,0,0, 0,0],
[17,11,14,11,15,0,0, 0,0, 0,0],
[12,12,13,0,0, 0,0, 0,0, 0,0],
[18,13,10,13,11,13,12,13,13,0,0],
[17,14,4,14,5,0,0, 0,0, 0,0],
[16,14,14,0,0, 0,0, 0,0, 0,0],
[57,15,1,16,1,16,2,15,2,15,3],
[16,15,10,0,0, 0,0, 0,0, 0,0],
[15,15,13,15,14,0,0, 0,0, 0,0],
[15,16,10,16,11,0,0, 0,0, 0,0]
]
